Cost: 377
0-34-52-4-0
0-30-21-28-22-0
0-2-6-51-17-0
0-58-10-26-0
0-3-44-40-12-0
0-35-19-8-46-0
0-1-43-41-23-0
Cost: 377
0-12-40-44-3-0
0-34-52-4-0
0-22-28-21-30-0
0-17-51-6-2-0
0-23-41-43-1-0
0-46-8-19-35-0
0-26-58-10-0
Cost: 377
0-34-52-4-0
0-30-21-28-22-0
0-2-6-51-17-0
0-58-10-26-0
0-3-44-40-12-0
0-35-19-8-46-0
0-1-43-41-23-0
Cost: 377
0-22-28-21-30-0
0-3-44-40-12-0
0-26-10-58-0
0-2-6-51-17-0
0-34-52-4-0
0-35-19-8-46-0
0-1-43-41-23-0
Cost: 377
0-12-40-44-3-0
0-58-10-26-0
0-35-19-8-46-0
0-34-52-4-0
0-1-43-41-23-0
0-2-6-51-17-0
0-22-28-21-30-0
Cost: 377
0-34-52-4-0
0-30-21-28-22-0
0-17-51-6-2-0
0-35-19-8-46-0
0-1-43-41-23-0
0-58-10-26-0
0-3-44-40-12-0
Cost: 377
0-34-52-4-0
0-23-41-43-1-0
0-10-58-26-0
0-17-51-6-2-0
0-35-19-8-46-0
0-3-44-40-12-0
0-22-28-21-30-0
Cost: 377
0-34-52-4-0
0-23-41-43-1-0
0-10-58-26-0
0-17-51-6-2-0
0-35-19-8-46-0
0-3-44-40-12-0
0-22-28-21-30-0
Cost: 377
0-34-52-4-0
0-23-41-43-1-0
0-10-58-26-0
0-17-51-6-2-0
0-35-19-8-46-0
0-3-44-40-12-0
0-22-28-21-30-0
Cost: 377
0-26-58-10-0
0-3-44-40-12-0
0-1-43-41-23-0
0-4-52-34-0
0-30-21-28-22-0
0-35-19-8-46-0
0-17-51-6-2-0
Cost: 377
0-30-21-28-22-0
0-2-6-51-17-0
0-34-52-4-0
0-1-43-41-23-0
0-35-19-8-46-0
0-26-10-58-0
0-12-40-44-3-0
Cost: 377
0-30-21-28-22-0
0-2-6-51-17-0
0-34-52-4-0
0-1-43-41-23-0
0-35-19-8-46-0
0-26-10-58-0
0-12-40-44-3-0
Cost: 377
0-30-21-28-22-0
0-2-6-51-17-0
0-34-52-4-0
0-1-43-41-23-0
0-35-19-8-46-0
0-26-10-58-0
0-12-40-44-3-0
Cost: 377
0-34-52-4-0
0-58-10-26-0
0-1-43-41-23-0
0-17-51-6-2-0
0-30-21-28-22-0
0-12-40-44-3-0
0-35-19-8-46-0
Cost: 377
0-30-21-28-22-0
0-2-6-51-17-0
0-34-52-4-0
0-1-43-41-23-0
0-35-19-8-46-0
0-26-10-58-0
0-12-40-44-3-0
Cost: 377
0-30-21-28-22-0
0-2-6-51-17-0
0-34-52-4-0
0-1-43-41-23-0
0-35-19-8-46-0
0-26-10-58-0
0-12-40-44-3-0
Cost: 377
0-30-21-28-22-0
0-2-6-51-17-0
0-34-52-4-0
0-1-43-41-23-0
0-35-19-8-46-0
0-26-10-58-0
0-12-40-44-3-0
Cost: 377
0-34-52-4-0
0-46-8-19-35-0
0-58-10-26-0
0-23-41-43-1-0
0-30-21-28-22-0
0-3-44-40-12-0
0-2-6-51-17-0
Cost: 377
0-2-6-51-17-0
0-4-52-34-0
0-3-44-40-12-0
0-35-19-8-46-0
0-22-28-21-30-0
0-58-10-26-0
0-1-43-41-23-0
Cost: 377
0-2-6-51-17-0
0-4-52-34-0
0-3-44-40-12-0
0-35-19-8-46-0
0-22-28-21-30-0
0-58-10-26-0
0-1-43-41-23-0
Cost: 377
0-17-51-6-2-0
0-3-44-40-12-0
0-4-52-34-0
0-10-58-26-0
0-23-41-43-1-0
0-46-8-19-35-0
0-30-21-28-22-0
Cost: 377
0-2-6-51-17-0
0-34-52-4-0
0-1-43-41-23-0
0-3-44-40-12-0
0-10-58-26-0
0-30-21-28-22-0
0-35-19-8-46-0
Cost: 377
0-34-52-4-0
0-3-44-40-12-0
0-17-51-6-2-0
0-30-21-28-22-0
0-46-8-19-35-0
0-1-43-41-23-0
0-10-58-26-0
Cost: 377
0-46-8-19-35-0
0-58-10-26-0
0-30-21-28-22-0
0-4-52-34-0
0-17-51-6-2-0
0-12-40-44-3-0
0-23-41-43-1-0
Cost: 377
0-34-52-4-0
0-46-8-19-35-0
0-58-10-26-0
0-23-41-43-1-0
0-30-21-28-22-0
0-3-44-40-12-0
0-2-6-51-17-0
Cost: 377
0-2-6-51-17-0
0-4-52-34-0
0-3-44-40-12-0
0-35-19-8-46-0
0-22-28-21-30-0
0-58-10-26-0
0-1-43-41-23-0
Cost: 377
0-34-52-4-0
0-30-21-28-22-0
0-1-43-41-23-0
0-26-10-58-0
0-17-51-6-2-0
0-35-19-8-46-0
0-3-44-40-12-0
Cost: 382
0-1-43-41-23-0
0-21-28-22-2-0
0-12-40-44-3-0
0-34-19-35-7-0
0-30-4-52-46-0
0-17-51-6-0
0-10-58-26-0
Cost: 384
0-2-6-51-17-0
0-4-52-34-0
0-44-3-40-12-0
0-58-10-26-0
0-28-22-21-30-0
0-23-41-43-1-0
0-46-19-35-7-0
Cost: 377
0-26-10-58-0
0-30-21-28-22-0
0-3-44-40-12-0
0-35-19-8-46-0
0-34-52-4-0
0-17-51-6-2-0
0-1-43-41-23-0
Cost: 377
0-12-40-44-3-0
0-2-6-51-17-0
0-23-41-43-1-0
0-34-52-4-0
0-46-8-19-35-0
0-10-58-26-0
0-30-21-28-22-0
